NAME : P133122.55106.tour
COMMENT : Length = 55106
COMMENT : Found by LKH-3 [Keld Helsgaun] Tue Dec 17 14:07:48 2024
TYPE : TOUR
DIMENSION : 190
TOUR_SECTION
1
130
137
120
129
133
142
135
125
119
123
122
128
131
140
141
134
127
126
121
138
136
132
124
139
143
171
2
172
3
31
173
4
144
26
163
153
162
164
147
168
160
150
154
169
152
146
44
167
149
170
145
166
156
157
148
159
161
27
155
158
165
151
174
5
41
24
21
42
22
175
6
176
7
177
8
100
116
98
109
107
111
101
103
113
110
108
104
102
99
106
115
117
112
118
114
105
33
178
9
179
10
39
28
38
70
66
72
60
49
48
64
47
65
71
67
56
57
52
53
68
50
55
29
37
40
51
63
46
62
59
61
58
35
43
45
54
69
30
180
11
23
181
12
182
13
183
14
87
97
88
86
81
79
90
95
73
96
92
74
89
78
82
84
83
94
91
75
77
93
32
76
85
80
36
34
184
15
185
16
25
186
17
187
18
188
19
189
20
190
-1
EOF
